(set-logic QF_S)
(set-option :produce-models true)

(declare-fun s7363 () String)
(declare-fun s3549 () String)
(declare-fun s1064 () String)
(declare-fun s538 () String)
(declare-fun s4911 () String)
(declare-fun s691 () String)
(declare-fun s5853 () String)
(declare-fun s4914 () String)
(declare-fun s4977 () String)
(declare-fun s4934 () String)
(declare-fun s5873 () String)
(declare-fun s562 () String)
(declare-fun s6980 () String)
(declare-fun s5962 () String)
(declare-fun s2528 () String)
(declare-fun s2925 () String)
(declare-fun s3516 () String)
(declare-fun s6619 () String)
(declare-fun s671 () String)
(declare-fun s4858 () String)
(declare-fun s5784 () String)
(declare-fun s2922 () String)
(declare-fun s5684 () String)
(declare-fun s7819 () String)
(declare-fun s7822 () String)
(declare-fun s8196 () String)
(declare-fun s3608 () String)
(declare-fun s7842 () String)
(declare-fun s6669 () String)
(declare-fun s2888 () String)
(declare-fun s6692 () String)
(declare-fun s6223 () String)
(declare-fun s2409 () String)
(declare-fun s4855 () String)
(declare-fun s6983 () String)
(declare-fun s7019 () String)
(declare-fun s3387 () String)
(declare-fun s4325 () String)
(declare-fun s1252 () String)
(declare-fun s2531 () String)
(declare-fun s2961 () String)
(declare-fun s2641 () String)
(declare-fun s3218 () String)
(declare-fun s6061 () String)
(declare-fun s2329 () String)
(declare-fun s2429 () String)
(declare-fun s2661 () String)
(declare-fun s2551 () String)
(declare-fun s6672 () String)
(declare-fun s7201 () String)
(declare-fun s1692 () String)
(declare-fun s6943 () String)
(declare-fun s8026 () String)
(declare-fun s1668 () String)
(declare-fun s2463 () String)
(declare-fun s4224 () String)
(declare-fun s5052 () String)
(declare-fun s898 () String)
(declare-fun s8115 () String)
(declare-fun s8335 () String)
(declare-fun s5996 () String)
(declare-fun s1025 () String)
(declare-fun s1028 () String)
(declare-fun s1635 () String)
(declare-fun s435 () String)
(declare-fun s541 () String)
(declare-fun s971 () String)
(declare-fun s4221 () String)
(declare-fun s8249 () String)
(declare-fun s4244 () String)
(declare-fun s7917 () String)
(declare-fun s3026 () String)
(declare-fun s8029 () String)
(declare-fun s668 () String)
(declare-fun s2638 () String)
(declare-fun s1541 () String)
(declare-fun s5222 () String)
(declare-fun s781 () String)
(declare-fun s4292 () String)
(declare-fun s5728 () String)
(declare-fun s8163 () String)
(declare-fun s5128 () String)
(declare-fun s1760 () String)
(declare-fun s6946 () String)
(declare-fun s847 () String)
(declare-fun s6726 () String)
(declare-fun s6767 () String)
(declare-fun s6155 () String)
(declare-fun s5000 () String)
(declare-fun s4378 () String)
(declare-fun s901 () String)
(declare-fun s4804 () String)
(declare-fun s4158 () String)
(declare-fun s867 () String)
(declare-fun s8049 () String)
(declare-fun s5850 () String)
(declare-fun s5787 () String)
(declare-fun s2885 () String)
(declare-fun s2406 () String)
(declare-fun s7407 () String)
(declare-fun s5656 () String)
(declare-fun s7963 () String)
(declare-fun s7983 () String)
(declare-fun s725 () String)
(declare-fun s5636 () String)
(declare-fun s5633 () String)
(declare-fun s722 () String)
(declare-fun s5907 () String)
(declare-fun s7960 () String)
(declare-fun s778 () String)
(declare-fun s5904 () String)
(declare-fun s2831 () String)
(declare-fun s6826 () String)
(declare-fun s2285 () String)
(declare-fun s2854 () String)
(declare-fun s8092 () String)
(declare-fun s7295 () String)
(declare-fun s7136 () String)
(declare-fun s2834 () String)
(declare-fun s6912 () String)
(declare-fun s603 () String)
(declare-fun s7159 () String)
(declare-fun s3422 () String)
(declare-fun s6770 () String)
(declare-fun s3260 () String)
(declare-fun s1463 () String)
(declare-fun s6823 () String)
(declare-fun s1499 () String)
(declare-fun s2288 () String)
(declare-fun s6889 () String)
(declare-fun s2758 () String)
(declare-fun s3641 () String)
(declare-fun s3101 () String)
(declare-fun s1369 () String)
(declare-fun s3676 () String)
(declare-fun s7897 () String)
(declare-fun s8095 () String)
(declare-fun s6188 () String)
(declare-fun s6019 () String)
(declare-fun s4807 () String)
(declare-fun s4827 () String)
(declare-fun s974 () String)
(declare-fun s7440 () String)
(declare-fun s7328 () String)
(declare-fun s6892 () String)
(declare-fun s2761 () String)
(declare-fun s6723 () String)
(declare-fun s844 () String)
(declare-fun s2704 () String)
(declare-fun s2707 () String)
(declare-fun s2460 () String)
(declare-fun s994 () String)
(declare-fun s2727 () String)
(declare-fun s2984 () String)
(declare-fun s2582 () String)
(declare-fun s1119 () String)
(declare-fun s5807 () String)
(declare-fun s4980 () String)
(declare-fun s5255 () String)
(declare-fun s7061 () String)
(declare-fun s5731 () String)
(declare-fun s1210 () String)
(declare-fun s440 () String)
(declare-fun s6846 () String)
(declare-fun s2585 () String)
(declare-fun s6616 () String)
(declare-fun s3354 () String)
(declare-fun s1727 () String)
(declare-fun s600 () String)
(declare-fun s4181 () String)
(declare-fun s2326 () String)
(declare-fun s5086 () String)
(declare-fun s801 () String)
(declare-fun s4161 () String)
(declare-fun s147 () String)
(declare-fun s1327 () String)
(declare-fun s3573 () String)
(declare-fun s3143 () String)
(declare-fun s7894 () String)
(declare-fun s127 () String)
(declare-fun s5687 () String)

(assert (not (= s147 s867 )))
(assert (= s2925 s2922 ))
(assert (= s6826 s6823 ))
(assert (not (= s147 s2429 )))
(assert (not (= s1119 s127 )))
(assert (= s901 s898 ))
(assert (= s5853 s5850 ))
(assert (= s3218 s127 ))
(assert (= s127 "(" ))
(assert (not (= s5052 s127 )))
(assert (= s1028 s1025 ))
(assert (= s7363 s147 ))
(assert (= s4807 s4804 ))
(assert (= s603 s600 ))
(assert (= s2463 s2460 ))
(assert (= s440 s435 ))
(assert (not (= s127 s6946 )))
(assert (not (= s147 s4244 )))
(assert (not (= s1499 s127 )))
(assert (not (= s147 s801 )))
(assert (not (= s147 s7842 )))
(assert (not (= s127 s2761 )))
(assert (= s127 s6726 ))
(assert (= s7295 s147 ))
(assert (not (= s127 s2834 )))
(assert (not (= s127 s4914 )))
(assert (= s5636 s5633 ))
(assert (= s7822 s7819 ))
(assert (= s3101 s127 ))
(assert (= s2641 s2638 ))
(assert (not (= s5222 s127 )))
(assert (= s4914 s4911 ))
(assert (= s2984 s127 ))
(assert (= s7019 s127 ))
(assert (not (= s3549 s127 )))
(assert (not (= s127 s8095 )))
(assert (not (= s8335 s127 )))
(assert (not (= s127 s671 )))
(assert (not (= s127 s6826 )))
(assert (not (= s1727 s127 )))
(assert (= s7407 s147 ))
(assert (not (= s6188 s127 )))
(assert (not (= s1541 s127 )))
(assert (= s1463 s147 ))
(assert (not (= s4325 s127 )))
(assert (= s5787 s5784 ))
(assert (= s6019 s127 ))
(assert (not (= s7363 s127 )))
(assert (not (= s1760 s127 )))
(assert (not (= s147 s8163 )))
(assert (not (= s147 s5656 )))
(assert (= s5086 s127 ))
(assert (= s725 s722 ))
(assert (not (= s6155 s127 )))
(assert (not (= s127 s6892 )))
(assert (not (= s8196 s127 )))
(assert (not (= s127 s2531 )))
(assert (not (= s5255 s127 )))
(assert (not (= s127 s6672 )))
(assert (not (= s127 s2888 )))
(assert (not (= s3516 s127 )))
(assert (= s2585 s2582 ))
(assert (not (= s6223 s127 )))
(assert (not (= s147 s4827 )))
(assert (not (= s127 s901 )))
(assert (= s2834 s2831 ))
(assert (not (= s127 s847 )))
(assert (= s5687 s5684 ))
(assert (not (= s3143 s147 )))
(assert (= s2707 s2704 ))
(assert (= s8029 s8026 ))
(assert (not (= s3354 s127 )))
(assert (= s127 s2463 ))
(assert (not (= s127 s4161 )))
(assert (not (= s147 s5807 )))
(assert (= s6726 s6723 ))
(assert (not (= s3260 s147 )))
(assert (not (= s1252 s127 )))
(assert (not (= s147 s562 )))
(assert (not (= s4325 s147 )))
(assert (not (= s127 s541 )))
(assert (not (= s127 s5907 )))
(assert (not (= s147 s7983 )))
(assert (not (= s147 s5873 )))
(assert (= s2409 s2406 ))
(assert (not (= s6061 s147 )))
(assert (not (= s127 s4224 )))
(assert (not (= s147 s8115 )))
(assert (not (= s4378 s127 )))
(assert (= s1210 s127 ))
(assert (= s671 s668 ))
(assert (= s127 s5687 ))
(assert (= s127 s2329 ))
(assert (not (= s3422 s147 )))
(assert (= s3516 s147 ))
(assert (= s4858 s4855 ))
(assert (not (= s127 s7822 )))
(assert (not (= s147 s2727 )))
(assert (= s1327 s127 ))
(assert (= s3676 s147 ))
(assert (not (= s5962 s147 )))
(assert (not (= s127 s5787 )))
(assert (not (= s127 s7897 )))
(assert (not (= s8335 s147 )))
(assert (not (= s7440 s127 )))
(assert (= s127 s6619 ))
(assert (= s147 ")" ))
(assert (= s7159 s127 ))
(assert (not (= s5128 s127 )))
(assert (not (= s127 s2707 )))
(assert (= s6770 s6767 ))
(assert (not (= s3676 s127 )))
(assert (not (= s6061 s127 )))
(assert (not (= s127 s781 )))
(assert (not (= s7201 s147 )))
(assert (not (= s147 s7917 )))
(assert (= s127 s725 ))
(assert (not (= s147 s2854 )))
(assert (= s127 s4858 ))
(assert (= s7136 s127 ))
(assert (not (= s147 s6846 )))
(assert (not (= s7201 s127 )))
(assert (= s2888 s2885 ))
(assert (not (= s3573 s127 )))
(assert (not (= s127 s5636 )))
(assert (= s5907 s5904 ))
(assert (not (= s127 s2409 )))
(assert (not (= s127 s4980 )))
(assert (= s127 s5731 ))
(assert (= s127 s6770 ))
(assert (not (= s8249 s147 )))
(assert (not (= s147 s6692 )))
(assert (= s847 s844 ))
(assert (= s1727 s147 ))
(assert (= s6223 s147 ))
(assert (not (= s147 s2661 )))
(assert (= s5222 s147 ))
(assert (= s3354 s147 ))
(assert (not (= s3387 s127 )))
(assert (not (= s127 s974 )))
(assert (not (= s8249 s127 )))
(assert (not (= s127 s1028 )))
(assert (not (= s147 s5000 )))
(assert (not (= s127 s8029 )))
(assert (not (= s1635 s127 )))
(assert (not (= s5128 s147 )))
(assert (= s6983 s6980 ))
(assert (not (= s147 s691 )))
(assert (= s127 s2288 ))
(assert (= s6672 s6669 ))
(assert (not (= s1668 s127 )))
(assert (= s6619 s6616 ))
(assert (= s127 s440 ))
(assert (not (= s5962 s127 )))
(assert (not (= s1463 s127 )))
(assert (= s6892 s6889 ))
(assert (not (= s7061 s127 )))
(assert (not (= s3422 s127 )))
(assert (not (= s3641 s127 )))
(assert (= s127 s2585 ))
(assert (= s7897 s7894 ))
(assert (= s8335 s147 ))
(assert (not (= s147 s994 )))
(assert (= s541 s538 ))
(assert (not (= s1369 s147 )))
(assert (not (= s4378 s147 )))
(assert (not (= s3026 s147 )))
(assert (= s2761 s2758 ))
(assert (not (= s3260 s127 )))
(assert (= s974 s971 ))
(assert (not (= s1692 s127 )))
(assert (not (= s147 s4292 )))
(assert (not (= s147 s4934 )))
(assert (= s127 s603 ))
(assert (= s7963 s7960 ))
(assert (= s2531 s2528 ))
(assert (not (= s147 s8049 )))
(assert (= s5996 s127 ))
(assert (= s4224 s4221 ))
(assert (= s3608 s147 ))
(assert (not (= s127 s4807 )))
(assert (not (= s1369 s127 )))
(assert (not (= s3608 s127 )))
(assert (not (= s147 s2551 )))
(assert (not (= s7407 s127 )))
(assert (not (= s7061 s147 )))
(assert (= s2329 s2326 ))
(assert (= s1064 s127 ))
(assert (not (= s5052 s147 )))
(assert (not (= s3026 s127 )))
(assert (not (= s127 s6983 )))
(assert (= s2288 s2285 ))
(assert (not (= s8196 s147 )))
(assert (= s4980 s4977 ))
(assert (= s6946 s6943 ))
(assert (= s6155 s147 ))
(assert (not (= s7328 s127 )))
(assert (not (= s147 s4181 )))
(assert (not (= s7295 s127 )))
(assert (not (= s147 s6912 )))
(assert (not (= s1252 s147 )))
(assert (= s4161 s4158 ))
(assert (not (= s127 s2641 )))
(assert (not (= s127 s5853 )))
(assert (not (= s127 s7963 )))
(assert (not (= s1119 s147 )))
(assert (not (= s3143 s127 )))
(assert (= s8095 s8092 ))
(assert (= s2961 s127 ))
(assert (= s781 s778 ))
(assert (not (= s1541 s147 )))
(assert (= s5731 s5728 ))
(assert (= s1635 s147 ))
(assert (not (= s127 s2925 )))


(check-sat)
(get-model)
